proyfinal/src/viki/013/experimentInOfficeAgust.take6.output/0770107e-dc56-4309-85dc-aa100df21d92.als.dat
{'cnf.clauses': '118081',
 'cnf.totvars': '69608',
 'conflict literals': '58',
 'conflicts': '23',
 'decisions': '5082',
 'memused.mb': '15.95',
 'outcome': 'UNSAT',
 'propagations': '26796',
 'restarts': '1',
 'solver.msecs': 32,
 'task.msecs': 99}
