proyfinal/src/viki/013/experimentInOfficeAgust.take6.output/0770107e-dc56-4309-85dc-aa100df21d92.als.out
Reading from standard input... Use '--help' for help.
============================[ Problem Statistics ]=============================
|                                                                             |
|  Number of variables:         69608                                         |
|  Number of clauses:          118081                                         |
|  Parse time:                   0.03 s                                       |
|                                                                             |
============================[ Search Statistics ]==============================
| Conflicts |          ORIGINAL         |          LEARNT          | Progress |
|           |    Vars  Clauses Literals |    Limit  Clauses Lit/Cl |          |
===============================================================================
===============================================================================
restarts              : 1
conflicts             : 23             (717 /sec)
decisions             : 5082           (0.00 % random) (158471 /sec)
propagations          : 26796          (835573 /sec)
conflict literals     : 58             (0.00 % deleted)
Memory used           : 15.95 MB
CPU time              : 0.032069 s

UNSATISFIABLE
